Maximize
 obj: 973662 x0 + 1035661 x1 + 1000420 x2 + 146202 x3 + 52480 x4 + 323626 x5 + 308877 x6 + 301805 x7 + 216986 x8 + 303619 x9 + 265121 x10 + 459806 x11 + 572448 x12 + 505945 x13 + 75957 x14 + 99506 x15 + 206080 x16 + 225165 x17 + 136447 x18 + 40973 x19 + 374625 x20 + 481642 x21 + 464361 x22 + 272003 x23 + 263261 x24 + 244715 x25 + 157883 x26 + 212791 x27 + 66649 x28 + 172667 x29 + 134846 x30 + 85342 x31 + 257162 x32 + 346853 x33 + 236224 x34 + 330964 x35 + 394588 x36 + 373311 x37 + 146888 x38 + 190518 x39 + 168215 x40 + 139097 x41 + 173903 x42 + 166161 x43 + 82336 x44 + 121579 x45 + 82360 x46 + 155012 x47 + 124006 x48 + 46248 x49 + 189573 x50 + 113831 x51 + 33807 x52 + 128661 x53 
Subject To
 c1:  x1 +  x23 +  x25  <= 1
 c2:  x15  <= 1
 c3:  x7  <= 1
 c4:  x40 +  x52  <= 1
 c5:  x46 +  x47 +  x48  <= 1
 c6:  x2  <= 1
 c7:  x53  <= 1
 c8:  x20 +  x34  <= 1
 c9:  x8 +  x9 +  x10  <= 1
 c10:  x11 +  x14 +  x15 +  x52  <= 1
 c11:  x0 +  x15  <= 1
 c12:  x13  <= 1
 c13:  x10 +  x43  <= 1
 c14:  x13 +  x21 +  x36  <= 1
 c15:  x42  <= 1
 c16:  x48  <= 1
 c17:  x1  <= 1
 c18:  x2 +  x50 +  x52  <= 1
 c19:  x25 +  x35 +  x36  <= 1
 c20:  x14 +  x22  <= 1
 c21:  x22  <= 1
 c22:  x2 +  x33 +  x37  <= 1
 c23:  x36  <= 1
 c24:  x1 +  x2  <= 1
 c25:  x1  <= 1
 c26:  x0 +  x1  <= 1
 c27:  x23 +  x24  <= 1
 c28:  x28  <= 1
 c29:  x0  <= 1
 c30:  x0  <= 1
 c31:  x44 +  x45  <= 1
 c32:  x27  <= 1
 c33:  x14  <= 1
 c34:  x1 +  x2  <= 1
 c35:  x2  <= 1
 c36:  x1  <= 1
 c37:  x32 +  x34  <= 1
 c38:  x10 +  x26 +  x28 +  x38 +  x39  <= 1
 c39:  x1 +  x2 +  x8 +  x10  <= 1
 c40:  x8 +  x9  <= 1
 c41:  x14 +  x50 +  x51  <= 1
 c42:  x20  <= 1
 c43:  x0 +  x8  <= 1
 c44:  x32 +  x33  <= 1
 c45:  x0  <= 1
 c46:  x0 +  x2  <= 1
 c47:  x3 +  x5 +  x7 +  x12  <= 1
 c48:  x17 +  x21 +  x35  <= 1
 c49:  x45  <= 1
 c50:  x0 +  x1  <= 1
 c51:  x1 +  x34 +  x44 +  x45  <= 1
 c52:  x16 +  x18 +  x51  <= 1
 c53:  x41 +  x42 +  x43  <= 1
 c54:  x38 +  x39 +  x40  <= 1
 c55:  x12  <= 1
 c56:  x8  <= 1
 c57:  x47 +  x48  <= 1
 c58:  x9 +  x30 +  x31  <= 1
 c59:  x0  <= 1
 c60:  x20 +  x21  <= 1
 c61:  x35 +  x36 +  x37  <= 1
 c62:  x32 +  x33 +  x34  <= 1
 c63:  x30 +  x31  <= 1
 c64:  x26 +  x27 +  x28  <= 1
 c65:  x23 +  x24 +  x25  <= 1
 c66:  x20 +  x21 +  x22  <= 1
 c67:  x50 +  x51 +  x52  <= 1
 c68:  x5  <= 1
 c69:  x15  <= 1
 c70:  x14 +  x15  <= 1
 c71:  x16 +  x17 +  x18  <= 1
 c72:  x0 +  x1 +  x2  <= 1
 c73:  x5 +  x6 +  x7  <= 1
 c74:  x10  <= 1
 c75:  x11 +  x12 +  x13  <= 1
 c76:  x44  <= 1
 c77:  x37  <= 1
 c78:  x4 +  x11 +  x18  <= 1
 c79:  x11 +  x12  <= 1
 c80:  x9 +  x36  <= 1
 c81:  x49  <= 1
 c82:  x33  <= 1
 c83:  x51  <= 1
 c84:  x32  <= 1
 c85:  x0  <= 1
 c86:  x5 +  x6 +  x22  <= 1
 c87:  x2 +  x9  <= 1
 c88:  x11 +  x30 +  x50  <= 1
 c89:  x7  <= 1
 c90:  x35  <= 1
 c91:  x11 +  x13  <= 1
 c92:  x2  <= 1
 c93:  x47  <= 1
 c94:  x12  <= 1
 c95:  x13  <= 1
 c96:  x29  <= 1
 c97:  x21  <= 1
 c98:  x6 +  x26 +  x27 +  x37  <= 1
 c99:  x12  <= 1
 c100:  x39  <= 1
 c101:  x35 +  x37  <= 1
 c102:  x13  <= 1
 c103:  x41 +  x42  <= 1
 c104:  x41 +  x43  <= 1
 c105:  x20 +  x22  <= 1
 c106:  x16 +  x17 +  x38 +  x40  <= 1
 c107:  x6  <= 1
 c108:  x19 +  x24 +  x31  <= 1
Bounds
 0 <= x0 <= 1
 0 <= x1 <= 1
 0 <= x2 <= 1
 0 <= x3 <= 1
 0 <= x4 <= 1
 0 <= x5 <= 1
 0 <= x6 <= 1
 0 <= x7 <= 1
 0 <= x8 <= 1
 0 <= x9 <= 1
 0 <= x10 <= 1
 0 <= x11 <= 1
 0 <= x12 <= 1
 0 <= x13 <= 1
 0 <= x14 <= 1
 0 <= x15 <= 1
 0 <= x16 <= 1
 0 <= x17 <= 1
 0 <= x18 <= 1
 0 <= x19 <= 1
 0 <= x20 <= 1
 0 <= x21 <= 1
 0 <= x22 <= 1
 0 <= x23 <= 1
 0 <= x24 <= 1
 0 <= x25 <= 1
 0 <= x26 <= 1
 0 <= x27 <= 1
 0 <= x28 <= 1
 0 <= x29 <= 1
 0 <= x30 <= 1
 0 <= x31 <= 1
 0 <= x32 <= 1
 0 <= x33 <= 1
 0 <= x34 <= 1
 0 <= x35 <= 1
 0 <= x36 <= 1
 0 <= x37 <= 1
 0 <= x38 <= 1
 0 <= x39 <= 1
 0 <= x40 <= 1
 0 <= x41 <= 1
 0 <= x42 <= 1
 0 <= x43 <= 1
 0 <= x44 <= 1
 0 <= x45 <= 1
 0 <= x46 <= 1
 0 <= x47 <= 1
 0 <= x48 <= 1
 0 <= x49 <= 1
 0 <= x50 <= 1
 0 <= x51 <= 1
 0 <= x52 <= 1
 0 <= x53 <= 1
End